# Solution for model r10_t27_m4_6 Batch Number: 1
# Finished Task: 27 / 27
# Makespan: 447.0, Total Distance: 273.0, Total Time: 122.2872
# R O S F Batch
0 0 30 0.0 0.0 -1
1 1 12 0.0 0.0 -1
2 2 36 0.0 0.0 -1
3 3 20 0.0 0.0 -1
4 4 11 0.0 0.0 -1
5 5 27 0.0 0.0 -1
6 6 35 0.0 0.0 -1
7 7 28 0.0 0.0 -1
8 8 22 0.0 0.0 -1
9 9 25 0.0 0.0 -1
10 9 -1 388.0 412.0 0
11 4 24 270.0 293.0 0
12 1 15 183.0 205.0 0
13 8 14 344.0 374.0 0
14 8 -1 387.0 411.0 0
15 1 29 368.0 406.0 0
16 0 32 361.0 388.0 0
17 8 13 298.0 329.0 0
18 6 -1 423.0 447.0 0
19 5 -1 189.0 220.0 0
20 3 33 169.0 204.0 0
21 4 -1 398.0 423.0 0
22 8 17 251.0 275.0 0
23 6 18 299.0 326.0 0
24 4 21 293.0 324.0 0
25 9 10 361.0 388.0 0
26 6 34 205.0 241.0 0
27 5 19 143.0 171.0 0
28 7 -1 218.0 256.0 0
29 1 -1 422.0 447.0 0
30 0 31 272.0 311.0 0
31 0 16 326.0 350.0 0
32 0 -1 409.0 447.0 0
33 3 -1 412.0 443.0 0
34 6 23 256.0 290.0 0
35 6 26 125.0 163.0 0
36 2 -1 223.0 251.0 0
